p edge 50 132
e 0 5
e 0 7
e 0 9
e 0 13
e 0 38
e 0 43
e 0 44
e 0 48
e 1 4
e 1 9
e 1 11
e 1 18
e 1 20
e 1 27
e 1 30
e 1 31
e 1 38
e 1 48
e 2 7
e 2 9
e 2 42
e 2 49
e 3 15
e 3 36
e 3 49
e 4 21
e 4 23
e 4 31
e 4 41
e 5 6
e 5 27
e 5 28
e 5 38
e 6 20
e 6 25
e 6 30
e 6 31
e 7 15
e 7 18
e 7 21
e 7 27
e 7 48
e 8 16
e 8 37
e 9 19
e 9 22
e 9 25
e 9 27
e 9 33
e 9 40
e 10 16
e 10 22
e 10 32
e 10 33
e 10 40
e 10 49
e 11 26
e 11 29
e 11 39
e 12 15
e 12 25
e 12 28
e 12 32
e 12 38
e 12 47
e 13 18
e 13 25
e 13 40
e 13 44
e 13 46
e 14 17
e 14 27
e 14 30
e 14 32
e 14 43
e 15 27
e 16 32
e 16 34
e 17 30
e 17 42
e 18 22
e 18 26
e 18 49
e 19 31
e 20 22
e 21 24
e 21 25
e 22 26
e 22 29
e 22 32
e 22 35
e 22 38
e 22 40
e 22 43
e 23 36
e 23 43
e 23 47
e 24 37
e 24 44
e 25 32
e 25 36
e 26 31
e 26 34
e 26 39
e 26 46
e 27 29
e 27 32
e 28 42
e 28 44
e 28 47
e 29 32
e 29 34
e 29 35
e 29 36
e 29 38
e 30 32
e 31 47
e 31 49
e 32 36
e 32 38
e 33 42
e 34 40
e 34 44
e 37 42
e 37 49
e 38 43
e 39 47
e 41 46
e 42 49
e 43 46
e 44 45
e 45 49
